p cnf 252 1342
-7 -31 21 2 -38 0
-22 25 9 43 -7 0
44 47 24 -21 -7 0
-19 20 34 -23 -17 0
7 -28 49 38 -26 0
-46 36 -10 -29 -50 0
43 -22 23 13 -45 0
-16 32 20 1 41 0
-10 50 -17 -35 11 0
29 5 -34 -48 -45 0
-44 42 -23 -25 -41 0
-24 8 -22 50 -30 0
34 -7 21 -44 -20 0
-19 -40 21 -27 -11 0
-19 22 -10 -4 6 0
18 -44 -34 25 -42 0
-45 -27 49 -13 -50 0
15 -25 -40 -44 -4 0
-40 33 -4 41 -48 0
-36 -49 24 23 -40 0
-29 46 -42 -1 41 0
-47 -9 -48 16 4 0
-15 1 36 -35 11 0
-23 -5 -1 -41 -20 0
20 -32 45 -3 -11 0
17 -33 -16 -49 36 0
-3 17 45 2 -22 0
-19 -25 -35 -17 -21 0
6 38 -41 1 39 0
-35 26 11 -12 47 0
13 49 -48 12 26 0
49 -48 -10 29 -38 0
-38 35 15 -29 -37 0
45 -49 27 -48 -19 0
9 -32 -49 14 -48 0
48 -7 38 -45 -40 0
-43 11 -44 15 33 0
-35 -14 9 33 -17 0
28 -16 20 8 24 0
10 -50 23 14 16 0
-5 43 -36 39 40 0
10 -46 -48 -43 -5 0
47 6 -1 25 -27 0
49 -42 2 15 37 0
42 -39 -10 -7 4 0
2 -18 47 24 -16 0
-13 2 -9 -38 -36 0
22 50 8 -37 -39 0
-40 -28 37 -35 17 0
12 16 -26 -36 22 0
-39 -19 -11 24 13 0
-47 -49 37 -32 -5 0
-35 21 -19 -23 34 0
-46 -30 16 -19 -17 0
1 -36 -12 8 -7 0
-9 38 -3 19 -16 0
35 38 -27 -30 50 0
22 -49 -47 -26 -38 0
23 6 -50 31 -15 0
9 -43 -40 -39 13 0
41 39 49 29 25 0
-48 -22 -30 -16 26 0
46 -6 -38 28 39 0
-25 -31 48 -50 18 0
-31 30 29 11 39 0
-37 13 35 -3 -1 0
37 38 42 -40 -45 0
5 45 -4 10 8 0
16 50 -23 49 -33 0
-10 -1 40 -5 46 0
14 2 17 -41 -39 0
-40 -25 -35 27 -15 0
-2 -40 -12 38 29 0
40 48 21 1 38 0
38 43 -20 -14 -32 0
47 -25 -45 8 -36 0
10 -6 16 -30 44 0
21 10 31 24 2 0
-23 -34 43 31 29 0
-27 8 -13 20 30 0
-12 27 23 10 -3 0
38 -10 4 -48 -28 0
39 -46 -15 11 -32 0
44 9 43 -23 -21 0
-2 -47 -34 -8 19 0
-9 -40 7 -29 -10 0
45 -5 30 16 14 0
35 -2 32 38 -17 0
30 27 -16 4 -43 0
-43 -1 -31 34 -33 0
35 -1 31 -50 11 0
-37 -38 1 15 -50 0
11 5 48 -22 -10 0
-13 -39 41 10 5 0
27 -32 -13 -22 30 0
44 -11 -23 -21 9 0
-16 -17 -29 9 -15 0
-20 -16 5 23 -21 0
-26 18 11 25 28 0
-3 -9 -28 -44 -21 0
-14 25 35 -11 -1 0
30 31 24 -40 4 0
11 27 22 6 19 0
-1 -4 -38 -36 -11 0
-23 -11 47 45 -27 0
-30 -43 -15 23 -18 0
-39 20 34 35 -8 0
-6 16 -18 40 -31 0
48 34 28 4 22 0
-15 -30 -23 3 -44 0
39 -32 -16 -28 22 0
39 13 -48 36 -18 0
-11 -23 13 34 44 0
-4 -42 48 2 12 0
-25 49 -28 -9 12 0
21 -16 11 -7 42 0
-2 44 -13 25 -30 0
-46 45 -38 -24 6 0
-1 35 5 10 -25 0
-40 -37 19 -47 -32 0
12 -23 13 -20 15 0
25 32 29 21 48 0
42 -14 -22 25 -50 0
2 20 18 -1 -32 0
17 -41 -49 -43 48 0
36 13 50 -10 -3 0
22 15 36 -28 39 0
29 40 -24 49 -6 0
-32 38 43 46 50 0
29 42 37 25 -50 0
-39 -14 49 16 24 0
13 24 49 14 20 0
42 29 11 24 -32 0
-46 -48 -15 13 20 0
18 -8 -27 49 22 0
-24 -1 11 16 -36 0
30 -24 9 -28 1 0
19 4 -13 -23 7 0
48 30 41 -46 22 0
-6 43 -2 -3 47 0
-42 33 22 20 -39 0
-48 -21 22 -8 -39 0
2 8 -23 -28 -22 0
3 -24 -43 44 -27 0
-33 43 -39 41 -18 0
-29 -50 -17 19 -1 0
34 4 28 -12 -38 0
-47 -15 -7 41 -10 0
46 -17 -6 43 -30 0
-39 -26 31 42 -13 0
37 -43 -5 29 1 0
-7 11 25 47 -26 0
-12 14 -1 -36 15 0
3 -26 24 -46 -28 0
4 42 45 27 -9 0
5 22 -32 40 -11 0
47 18 -30 10 40 0
-11 14 6 48 46 0
24 -7 44 -8 -48 0
10 23 -25 11 18 0
-4 -11 -47 21 -37 0
-20 32 42 -37 21 0
43 -9 -36 -31 22 0
20 -36 -43 -49 9 0
5 19 -41 39 25 0
47 -6 -14 -30 -49 0
-20 2 -29 -3 -35 0
-31 -3 -1 -24 9 0
-41 40 6 47 39 0
49 -23 45 -21 -47 0
1 17 -6 -26 18 0
-49 -23 -21 -9 -38 0
1 44 -4 -36 13 0
-28 -4 9 7 -50 0
25 -31 -5 -6 16 0
-5 -16 33 27 46 0
-11 -49 -42 14 -48 0
31 43 -27 20 -41 0
-23 2 14 -38 48 0
-2 3 -17 -48 50 0
-13 -10 -30 -18 21 0
-23 39 -31 -27 3 0
13 -10 39 -22 -49 0
22 -13 -16 32 38 0
6 50 46 -18 38 0
-17 26 -8 33 -7 0
-32 -16 -28 -30 20 0
-26 47 -48 -32 -21 0
42 -3 2 -41 45 0
41 -23 -1 -26 36 0
-10 -36 35 -39 -45 0
-37 -11 46 27 8 0
43 -3 -27 31 -19 0
-4 -46 18 -16 30 0
32 34 14 -11 40 0
-8 17 -39 50 49 0
-12 -27 -28 -5 22 0
-29 -35 -11 45 3 0
46 24 7 39 -20 0
-14 40 -48 -34 30 0
-11 -20 -19 7 -9 0
32 36 -33 19 -37 0
-50 44 -24 33 25 0
50 -19 31 -26 24 0
14 49 -22 -21 5 0
34 9 48 -36 -47 0
46 50 28 37 -40 0
45 4 17 -28 33 0
7 -47 -45 -18 -25 0
-41 -32 -6 3 -25 0
-22 37 20 1 -26 0
-36 -11 -6 13 40 0
38 -9 -21 40 8 0
33 38 -13 41 -8 0
1 -18 37 2 6 0
40 -3 21 10 -7 0
50 11 31 -17 -34 0
-18 -39 -21 49 -5 0
-43 -34 -8 -17 21 0
-21 -10 -47 -15 -7 0
38 -1 -9 -35 10 0
45 -37 -30 40 17 0
33 -9 1 -34 -39 0
-34 7 27 10 24 0
4 10 23 2 -15 0
24 -50 -41 43 -35 0
-31 11 33 22 -36 0
-41 -6 -37 15 -16 0
34 24 44 19 49 0
21 -48 12 35 -15 0
-27 31 -48 -43 5 0
20 15 14 30 4 0
23 13 -5 -12 -3 0
-12 -8 30 -46 -44 0
-11 -50 -32 19 29 0
-26 22 32 -19 -2 0
-40 -41 8 28 13 0
32 30 -1 -45 37 0
-36 22 24 -32 -4 0
46 -16 -6 -32 -40 0
22 -20 -19 -34 -21 0
46 15 -48 1 -2 0
16 -9 20 -6 14 0
-3 28 -20 -41 44 0
2 -45 13 22 24 0
-18 -21 2 6 35 0
41 -39 -27 35 -37 0
30 -24 -44 11 4 0
-17 -27 19 24 -15 0
-46 48 -10 29 15 0
-1 13 -37 -32 -41 0
36 -10 -44 4 -9 0
12 -50 46 -49 23 0
1 -32 25 -11 45 0
-4 -15 -46 2 -50 0
34 -3 -8 2 -12 0
7 -22 -49 38 10 0
47 34 -36 15 -26 0
-27 38 22 -40 8 0
-42 49 -20 16 14 0
-50 -27 25 19 -16 0
24 49 -32 -36 -31 0
7 37 44 -41 -25 0
-43 44 -40 -27 -22 0
12 23 -18 -7 4 0
-23 38 -22 -47 -16 0
31 -35 -12 -4 42 0
44 -10 -20 28 9 0
41 49 38 -10 1 0
-44 10 50 2 14 0
-48 18 -50 -42 -27 0
-23 -45 33 -21 -24 0
14 -44 -20 -4 31 0
-26 -35 9 -42 46 0
50 1 15 -3 -33 0
-41 43 30 -34 -11 0
36 -8 -23 -17 45 0
24 4 -18 -33 34 0
45 -9 41 24 -14 0
35 30 -2 -24 34 0
-10 18 34 8 4 0
14 -35 34 -11 33 0
4 -27 -33 41 -11 0
19 44 -8 6 29 0
40 -46 -14 -27 22 0
15 -27 -29 5 -35 0
28 22 16 49 -5 0
-29 -19 43 -8 -2 0
11 23 20 -21 -3 0
21 -14 -17 -42 48 0
20 -8 10 -32 -42 0
-5 -28 33 -45 38 0
41 -17 -44 1 31 0
25 -36 46 12 44 0
14 -43 4 -49 -25 0
-48 11 20 -25 18 0
19 -10 49 -33 -16 0
37 -27 8 3 33 0
11 5 -4 -9 39 0
23 48 -39 24 -25 0
26 11 1 -15 2 0
-48 -24 -1 17 45 0
12 50 -32 20 -9 0
-26 49 47 -24 -15 0
41 -43 36 34 -35 0
33 21 -19 -28 20 0
44 41 49 17 -43 0
26 -42 32 15 -35 0
-31 -29 -41 -40 -17 0
-43 8 11 28 29 0
46 35 -30 7 -31 0
-29 40 -43 47 -22 0
-31 -49 14 21 -29 0
37 39 -12 10 11 0
-43 -50 -42 19 -7 0
36 -4 -21 -17 30 0
-41 32 6 -37 17 0
-24 -25 -9 12 -31 0
-11 -50 -17 19 -3 0
2 -49 28 -19 -45 0
-39 31 -34 42 -19 0
-5 21 45 28 46 0
-7 -2 -26 -20 -31 0
21 -38 -28 25 42 0
46 6 -33 48 7 0
37 33 26 12 -23 0
21 39 14 44 15 0
22 18 -39 30 -28 0
-49 -13 20 -11 39 0
42 20 49 39 30 0
23 -31 37 16 -3 0
33 40 -43 -41 -32 0
34 -15 14 37 -19 0
10 1 39 38 -22 0
-24 9 -15 -11 1 0
12 -21 38 29 3 0
14 -40 -21 -10 -5 0
35 -4 -49 -37 18 0
-36 -20 -6 7 -21 0
28 -13 -38 -42 -10 0
-25 15 -32 -10 23 0
-22 23 -18 15 -48 0
47 -15 17 16 6 0
-31 12 -10 20 -28 0
44 31 8 36 -5 0
22 21 42 6 50 0
38 29 13 25 -42 0
-38 -46 50 14 -45 0
-3 -7 -35 -36 -16 0
-31 -36 45 6 -19 0
-24 46 -26 -15 43 0
-9 -39 1 -17 -35 0
4 44 50 -31 28 0
-40 33 43 1 -21 0
-38 -29 -42 13 -31 0
-18 33 35 -12 45 0
-46 -31 -8 -26 21 0
30 -27 -6 -33 -10 0
-11 21 40 35 3 0
9 17 11 6 50 0
21 37 -25 4 -17 0
-24 -38 41 43 -7 0
-45 36 47 -49 30 0
-40 -13 17 -39 -41 0
-40 -35 37 20 -33 0
12 30 9 14 20 0
19 -30 20 23 -38 0
44 26 9 41 4 0
-5 45 -25 -3 -15 0
-18 47 -50 -6 23 0
46 10 -5 -14 47 0
17 48 49 22 9 0
-13 17 -11 45 -43 0
-15 -49 12 46 3 0
48 3 -22 17 -6 0
31 -10 22 35 23 0
-50 -25 16 45 14 0
-40 49 28 12 -48 0
-28 -18 42 -2 36 0
-31 28 -35 39 -33 0
42 37 10 35 28 0
-44 -19 46 -24 -33 0
42 -5 34 -9 47 0
1 43 36 -38 -17 0
49 42 -30 -32 -6 0
-28 9 -43 49 -5 0
2 8 -49 44 -46 0
34 29 -16 17 -2 0
6 30 -16 48 26 0
-12 -30 50 38 46 0
-28 16 14 -29 12 0
-1 -27 -39 2 21 0
30 -4 11 -24 -19 0
-15 31 -45 47 -35 0
-47 -9 -3 -19 24 0
-10 30 -48 -16 -49 0
-24 5 -15 35 18 0
46 -16 -1 -10 -48 0
5 7 -40 36 25 0
9 -24 11 26 -23 0
-17 6 41 12 -7 0
-18 40 22 -43 -30 0
-20 9 32 -24 -42 0
33 -26 -7 44 -23 0
28 38 -27 -35 -20 0
40 -21 27 42 -31 0
13 49 -3 -43 20 0
-41 11 36 6 -17 0
-30 34 28 -41 -35 0
-34 -43 -29 -1 12 0
-27 47 11 -10 -25 0
-6 14 -33 -31 21 0
47 8 14 18 -16 0
-49 -9 34 -18 -38 0
20 33 36 43 -48 0
-12 -46 -28 3 -6 0
30 1 17 -19 -8 0
-1 -16 10 -33 -45 0
-30 34 36 -9 16 0
-3 27 -36 -47 -22 0
9 34 38 -47 -28 0
38 20 -42 -49 -41 0
-31 -14 21 -23 17 0
41 -21 -37 19 -30 0
-49 -21 27 -25 -5 0
-21 -10 -31 44 27 0
32 -25 -49 11 -31 0
-2 34 31 49 -23 0
-41 50 1 10 37 0
33 -50 22 12 40 0
-5 39 21 36 -20 0
-27 -33 -20 -39 35 0
-13 -12 26 11 27 0
-33 -45 6 -43 -38 0
43 -33 34 -14 -49 0
12 -21 40 -32 28 0
38 -37 -35 -40 29 0
12 -4 28 33 21 0
22 -43 26 -42 -9 0
-33 -28 -41 43 -39 0
13 -25 -10 16 45 0
22 32 -35 -39 -13 0
9 50 11 -20 -42 0
28 -21 -3 -14 1 0
50 -32 38 -13 -48 0
-2 47 -32 -20 26 0
-23 24 -18 30 -14 0
10 5 -4 -38 -39 0
-9 1 31 -16 24 0
24 30 -47 12 41 0
25 -6 13 28 -11 0
33 50 -41 -27 -25 0
-23 25 11 -40 -24 0
34 44 -9 35 28 0
-6 11 -5 31 15 0
47 31 38 42 -23 0
-47 -15 10 -49 12 0
-4 -26 -27 -32 -3 0
-29 -34 -42 -4 -41 0
-39 35 -45 -13 47 0
13 -23 -27 -7 -36 0
9 -3 -8 17 -11 0
-8 49 27 22 16 0
-34 -46 -6 10 -22 0
22 32 -15 -23 -12 0
9 11 -42 26 -7 0
41 -5 21 40 -32 0
-28 8 -49 6 -33 0
-19 -45 12 -50 -21 0
7 34 8 3 5 0
25 -49 -44 -39 -47 0
33 -4 1 -14 13 0
18 -21 27 40 -45 0
-23 -46 15 -9 -12 0
28 9 -33 -40 4 0
-9 46 -42 17 10 0
-8 -39 9 -11 22 0
-25 -33 18 12 39 0
31 -18 46 19 26 0
8 -3 29 16 -33 0
32 -26 7 13 4 0
-46 33 -22 23 17 0
13 19 -9 6 45 0
-8 14 -6 10 12 0
47 48 -46 -22 42 0
4 -33 -49 32 -39 0
-49 -30 -29 -43 27 0
-10 23 50 -15 -18 0
-19 35 45 -32 -2 0
-4 -24 -11 -5 -17 0
19 46 12 -2 -9 0
20 -41 34 -43 -2 0
-28 -30 -8 -12 3 0
14 9 -26 -31 -19 0
33 -44 -39 34 -11 0
49 13 48 -29 23 0
21 14 10 7 -16 0
-36 -19 15 7 47 0
49 2 -24 45 9 0
46 2 35 -41 -19 0
-2 -4 51 0
2 -4 -51 0
-2 4 -51 0
2 4 51 0
7 8 52 0
-7 8 -52 0
7 -8 -52 0
-7 -8 52 0
-11 -13 53 0
11 -13 -53 0
-11 13 -53 0
11 13 53 0
-15 -16 54 0
15 -16 -54 0
-15 16 -54 0
15 16 54 0
19 -21 55 0
-19 -21 -55 0
19 21 -55 0
-19 21 55 0
22 24 56 0
-22 24 -56 0
22 -24 -56 0
-22 -24 56 0
-25 26 57 0
25 26 -57 0
-25 -26 -57 0
25 -26 57 0
-28 32 58 0
28 32 -58 0
-28 -32 -58 0
28 -32 58 0
-33 35 59 0
33 35 -59 0
-33 -35 -59 0
33 -35 59 0
-37 38 60 0
37 38 -60 0
-37 -38 -60 0
37 -38 60 0
-40 -42 61 0
40 -42 -61 0
-40 42 -61 0
40 42 61 0
43 -46 62 0
-43 -46 -62 0
43 46 -62 0
-43 46 62 0
47 -48 63 0
-47 -48 -63 0
47 48 -63 0
-47 48 63 0
50 -51 64 0
-50 -51 -64 0
50 51 -64 0
-50 51 64 0
52 -53 65 0
-52 -53 -65 0
52 53 -65 0
-52 53 65 0
54 -55 66 0
-54 -55 -66 0
54 55 -66 0
-54 55 66 0
56 -57 67 0
-56 -57 -67 0
56 57 -67 0
-56 57 67 0
58 -59 68 0
-58 -59 -68 0
58 59 -68 0
-58 59 68 0
60 -61 69 0
-60 -61 -69 0
60 61 -69 0
-60 61 69 0
62 -63 70 0
-62 -63 -70 0
62 63 -70 0
-62 63 70 0
64 -65 71 0
-64 -65 -71 0
64 65 -71 0
-64 65 71 0
66 -67 72 0
-66 -67 -72 0
66 67 -72 0
-66 67 72 0
68 -69 73 0
-68 -69 -73 0
68 69 -73 0
-68 69 73 0
70 -71 74 0
-70 -71 -74 0
70 71 -74 0
-70 71 74 0
72 -73 75 0
-72 -73 -75 0
72 73 -75 0
-72 73 75 0
74 75 0
-74 -75 0
-4 -9 76 0
4 -9 -76 0
-4 9 -76 0
4 9 76 0
-10 -11 77 0
10 -11 -77 0
-10 11 -77 0
10 11 77 0
-12 -14 78 0
12 -14 -78 0
-12 14 -78 0
12 14 78 0
-15 19 79 0
15 19 -79 0
-15 -19 -79 0
15 -19 79 0
-21 22 80 0
21 22 -80 0
-21 -22 -80 0
21 -22 80 0
23 24 81 0
-23 24 -81 0
23 -24 -81 0
-23 -24 81 0
-25 29 82 0
25 29 -82 0
-25 -29 -82 0
25 -29 82 0
31 34 83 0
-31 34 -83 0
31 -34 -83 0
-31 -34 83 0
-37 -41 84 0
37 -41 -84 0
-37 41 -84 0
37 41 84 0
46 -47 85 0
-46 -47 -85 0
46 47 -85 0
-46 47 85 0
-48 49 86 0
48 49 -86 0
-48 -49 -86 0
48 -49 86 0
76 -77 87 0
-76 -77 -87 0
76 77 -87 0
-76 77 87 0
78 -79 88 0
-78 -79 -88 0
78 79 -88 0
-78 79 88 0
80 -81 89 0
-80 -81 -89 0
80 81 -89 0
-80 81 89 0
82 -83 90 0
-82 -83 -90 0
82 83 -90 0
-82 83 90 0
84 -85 91 0
-84 -85 -91 0
84 85 -91 0
-84 85 91 0
86 -87 92 0
-86 -87 -92 0
86 87 -92 0
-86 87 92 0
88 -89 93 0
-88 -89 -93 0
88 89 -93 0
-88 89 93 0
90 -91 94 0
-90 -91 -94 0
90 91 -94 0
-90 91 94 0
-92 -93 94 0
92 -93 -94 0
-92 93 -94 0
92 93 94 0
1 4 95 0
-1 4 -95 0
1 -4 -95 0
-1 -4 95 0
5 -12 96 0
-5 -12 -96 0
5 12 -96 0
-5 12 96 0
-13 -19 97 0
13 -19 -97 0
-13 19 -97 0
13 19 97 0
21 -26 98 0
-21 -26 -98 0
21 26 -98 0
-21 26 98 0
27 -30 99 0
-27 -30 -99 0
27 30 -99 0
-27 30 99 0
-33 -34 100 0
33 -34 -100 0
-33 34 -100 0
33 34 100 0
35 38 101 0
-35 38 -101 0
35 -38 -101 0
-35 -38 101 0
41 42 102 0
-41 42 -102 0
41 -42 -102 0
-41 -42 102 0
-44 -45 103 0
44 -45 -103 0
-44 45 -103 0
44 45 103 0
94 -95 104 0
-94 -95 -104 0
94 95 -104 0
-94 95 104 0
96 -97 105 0
-96 -97 -105 0
96 97 -105 0
-96 97 105 0
98 -99 106 0
-98 -99 -106 0
98 99 -106 0
-98 99 106 0
100 -101 107 0
-100 -101 -107 0
100 101 -107 0
-100 101 107 0
102 -103 108 0
-102 -103 -108 0
102 103 -108 0
-102 103 108 0
104 -105 109 0
-104 -105 -109 0
104 105 -109 0
-104 105 109 0
106 -107 110 0
-106 -107 -110 0
106 107 -110 0
-106 107 110 0
-108 -109 110 0
108 -109 -110 0
-108 109 -110 0
108 109 110 0
-1 3 111 0
1 3 -111 0
-1 -3 -111 0
1 -3 111 0
-5 6 112 0
5 6 -112 0
-5 -6 -112 0
5 -6 112 0
-7 14 113 0
7 14 -113 0
-7 -14 -113 0
7 -14 113 0
15 -17 114 0
-15 -17 -114 0
15 17 -114 0
-15 17 114 0
-20 21 115 0
20 21 -115 0
-20 -21 -115 0
20 -21 115 0
25 28 116 0
-25 28 -116 0
25 -28 -116 0
-25 -28 116 0
30 -31 117 0
-30 -31 -117 0
30 31 -117 0
-30 31 117 0
32 34 118 0
-32 34 -118 0
32 -34 -118 0
-32 -34 118 0
35 -37 119 0
-35 -37 -119 0
35 37 -119 0
-35 37 119 0
40 -42 120 0
-40 -42 -120 0
40 42 -120 0
-40 42 120 0
43 -46 121 0
-43 -46 -121 0
43 46 -121 0
-43 46 121 0
47 50 122 0
-47 50 -122 0
47 -50 -122 0
-47 -50 122 0
111 -112 123 0
-111 -112 -123 0
111 112 -123 0
-111 112 123 0
113 -114 124 0
-113 -114 -124 0
113 114 -124 0
-113 114 124 0
115 -116 125 0
-115 -116 -125 0
115 116 -125 0
-115 116 125 0
117 -118 126 0
-117 -118 -126 0
117 118 -126 0
-117 118 126 0
119 -120 127 0
-119 -120 -127 0
119 120 -127 0
-119 120 127 0
121 -122 128 0
-121 -122 -128 0
121 122 -128 0
-121 122 128 0
123 -124 129 0
-123 -124 -129 0
123 124 -129 0
-123 124 129 0
125 -126 130 0
-125 -126 -130 0
125 126 -130 0
-125 126 130 0
127 -128 131 0
-127 -128 -131 0
127 128 -131 0
-127 128 131 0
-129 -130 131 0
129 -130 -131 0
-129 130 -131 0
129 130 131 0
-1 -2 132 0
1 -2 -132 0
-1 2 -132 0
1 2 132 0
-4 5 133 0
4 5 -133 0
-4 -5 -133 0
4 -5 133 0
-8 -11 134 0
8 -11 -134 0
-8 11 -134 0
8 11 134 0
12 -13 135 0
-12 -13 -135 0
12 13 -135 0
-12 13 135 0
17 -18 136 0
-17 -18 -136 0
17 18 -136 0
-17 18 136 0
19 21 137 0
-19 21 -137 0
19 -21 -137 0
-19 -21 137 0
25 26 138 0
-25 26 -138 0
25 -26 -138 0
-25 -26 138 0
-29 31 139 0
29 31 -139 0
-29 -31 -139 0
29 -31 139 0
-32 -33 140 0
32 -33 -140 0
-32 33 -140 0
32 33 140 0
35 37 141 0
-35 37 -141 0
35 -37 -141 0
-35 -37 141 0
39 -40 142 0
-39 -40 -142 0
39 40 -142 0
-39 40 142 0
41 -44 143 0
-41 -44 -143 0
41 44 -143 0
-41 44 143 0
131 -132 144 0
-131 -132 -144 0
131 132 -144 0
-131 132 144 0
133 -134 145 0
-133 -134 -145 0
133 134 -145 0
-133 134 145 0
135 -136 146 0
-135 -136 -146 0
135 136 -146 0
-135 136 146 0
137 -138 147 0
-137 -138 -147 0
137 138 -147 0
-137 138 147 0
139 -140 148 0
-139 -140 -148 0
139 140 -148 0
-139 140 148 0
141 -142 149 0
-141 -142 -149 0
141 142 -149 0
-141 142 149 0
143 -144 150 0
-143 -144 -150 0
143 144 -150 0
-143 144 150 0
145 -146 151 0
-145 -146 -151 0
145 146 -151 0
-145 146 151 0
147 -148 152 0
-147 -148 -152 0
147 148 -152 0
-147 148 152 0
149 -150 153 0
-149 -150 -153 0
149 150 -153 0
-149 150 153 0
151 -152 154 0
-151 -152 -154 0
151 152 -154 0
-151 152 154 0
153 154 0
-153 -154 0
1 -3 155 0
-1 -3 -155 0
1 3 -155 0
-1 3 155 0
-4 -6 156 0
4 -6 -156 0
-4 6 -156 0
4 6 156 0
10 -12 157 0
-10 -12 -157 0
10 12 -157 0
-10 12 157 0
15 19 158 0
-15 19 -158 0
15 -19 -158 0
-15 -19 158 0
-24 25 159 0
24 25 -159 0
-24 -25 -159 0
24 -25 159 0
-27 29 160 0
27 29 -160 0
-27 -29 -160 0
27 -29 160 0
-30 -32 161 0
30 -32 -161 0
-30 32 -161 0
30 32 161 0
-39 43 162 0
39 43 -162 0
-39 -43 -162 0
39 -43 162 0
45 47 163 0
-45 47 -163 0
45 -47 -163 0
-45 -47 163 0
154 -155 164 0
-154 -155 -164 0
154 155 -164 0
-154 155 164 0
156 -157 165 0
-156 -157 -165 0
156 157 -165 0
-156 157 165 0
158 -159 166 0
-158 -159 -166 0
158 159 -166 0
-158 159 166 0
160 -161 167 0
-160 -161 -167 0
160 161 -167 0
-160 161 167 0
162 -163 168 0
-162 -163 -168 0
162 163 -168 0
-162 163 168 0
164 -165 169 0
-164 -165 -169 0
164 165 -169 0
-164 165 169 0
166 -167 170 0
-166 -167 -170 0
166 167 -170 0
-166 167 170 0
-168 -169 170 0
168 -169 -170 0
-168 169 -170 0
168 169 170 0
2 -3 171 0
-2 -3 -171 0
2 3 -171 0
-2 3 171 0
5 9 172 0
-5 9 -172 0
5 -9 -172 0
-5 -9 172 0
11 -12 173 0
-11 -12 -173 0
11 12 -173 0
-11 12 173 0
13 -17 174 0
-13 -17 -174 0
13 17 -174 0
-13 17 174 0
-18 19 175 0
18 19 -175 0
-18 -19 -175 0
18 -19 175 0
-21 22 176 0
21 22 -176 0
-21 -22 -176 0
21 -22 176 0
24 -25 177 0
-24 -25 -177 0
24 25 -177 0
-24 25 177 0
28 29 178 0
-28 29 -178 0
28 -29 -178 0
-28 -29 178 0
-30 34 179 0
30 34 -179 0
-30 -34 -179 0
30 -34 179 0
35 -36 180 0
-35 -36 -180 0
35 36 -180 0
-35 36 180 0
-37 38 181 0
37 38 -181 0
-37 -38 -181 0
37 -38 181 0
44 45 182 0
-44 45 -182 0
44 -45 -182 0
-44 -45 182 0
170 -171 183 0
-170 -171 -183 0
170 171 -183 0
-170 171 183 0
172 -173 184 0
-172 -173 -184 0
172 173 -184 0
-172 173 184 0
174 -175 185 0
-174 -175 -185 0
174 175 -185 0
-174 175 185 0
176 -177 186 0
-176 -177 -186 0
176 177 -186 0
-176 177 186 0
178 -179 187 0
-178 -179 -187 0
178 179 -187 0
-178 179 187 0
180 -181 188 0
-180 -181 -188 0
180 181 -188 0
-180 181 188 0
182 -183 189 0
-182 -183 -189 0
182 183 -189 0
-182 183 189 0
184 -185 190 0
-184 -185 -190 0
184 185 -190 0
-184 185 190 0
186 -187 191 0
-186 -187 -191 0
186 187 -191 0
-186 187 191 0
188 -189 192 0
-188 -189 -192 0
188 189 -192 0
-188 189 192 0
190 -191 193 0
-190 -191 -193 0
190 191 -193 0
-190 191 193 0
192 193 0
-192 -193 0
-1 7 194 0
1 7 -194 0
-1 -7 -194 0
1 -7 194 0
-8 -9 195 0
8 -9 -195 0
-8 9 -195 0
8 9 195 0
10 -15 196 0
-10 -15 -196 0
10 15 -196 0
-10 15 196 0
16 -17 197 0
-16 -17 -197 0
16 17 -197 0
-16 17 197 0
-18 -20 198 0
18 -20 -198 0
-18 20 -198 0
18 20 198 0
-22 -24 199 0
22 -24 -199 0
-22 24 -199 0
22 24 199 0
26 27 200 0
-26 27 -200 0
26 -27 -200 0
-26 -27 200 0
-32 -37 201 0
32 -37 -201 0
-32 37 -201 0
32 37 201 0
39 -42 202 0
-39 -42 -202 0
39 42 -202 0
-39 42 202 0
-46 -47 203 0
46 -47 -203 0
-46 47 -203 0
46 47 203 0
-48 -50 204 0
48 -50 -204 0
-48 50 -204 0
48 50 204 0
194 -195 205 0
-194 -195 -205 0
194 195 -205 0
-194 195 205 0
196 -197 206 0
-196 -197 -206 0
196 197 -206 0
-196 197 206 0
198 -199 207 0
-198 -199 -207 0
198 199 -207 0
-198 199 207 0
200 -201 208 0
-200 -201 -208 0
200 201 -208 0
-200 201 208 0
202 -203 209 0
-202 -203 -209 0
202 203 -209 0
-202 203 209 0
204 -205 210 0
-204 -205 -210 0
204 205 -210 0
-204 205 210 0
206 -207 211 0
-206 -207 -211 0
206 207 -211 0
-206 207 211 0
208 -209 212 0
-208 -209 -212 0
208 209 -212 0
-208 209 212 0
-210 -211 212 0
210 -211 -212 0
-210 211 -212 0
210 211 212 0
-2 4 213 0
2 4 -213 0
-2 -4 -213 0
2 -4 213 0
-5 7 214 0
5 7 -214 0
-5 -7 -214 0
5 -7 214 0
-8 9 215 0
8 9 -215 0
-8 -9 -215 0
8 -9 215 0
10 13 216 0
-10 13 -216 0
10 -13 -216 0
-10 -13 216 0
14 -18 217 0
-14 -18 -217 0
14 18 -217 0
-14 18 217 0
19 -20 218 0
-19 -20 -218 0
19 20 -218 0
-19 20 218 0
22 24 219 0
-22 24 -219 0
22 -24 -219 0
-22 -24 219 0
26 27 220 0
-26 27 -220 0
26 -27 -220 0
-26 -27 220 0
-30 -35 221 0
30 -35 -221 0
-30 35 -221 0
30 35 221 0
40 -41 222 0
-40 -41 -222 0
40 41 -222 0
-40 41 222 0
-42 43 223 0
42 43 -223 0
-42 -43 -223 0
42 -43 223 0
44 -50 224 0
-44 -50 -224 0
44 50 -224 0
-44 50 224 0
213 -214 225 0
-213 -214 -225 0
213 214 -225 0
-213 214 225 0
215 -216 226 0
-215 -216 -226 0
215 216 -226 0
-215 216 226 0
217 -218 227 0
-217 -218 -227 0
217 218 -227 0
-217 218 227 0
219 -220 228 0
-219 -220 -228 0
219 220 -228 0
-219 220 228 0
221 -222 229 0
-221 -222 -229 0
221 222 -229 0
-221 222 229 0
223 -224 230 0
-223 -224 -230 0
223 224 -230 0
-223 224 230 0
225 -226 231 0
-225 -226 -231 0
225 226 -231 0
-225 226 231 0
227 -228 232 0
-227 -228 -232 0
227 228 -232 0
-227 228 232 0
229 -230 233 0
-229 -230 -233 0
229 230 -233 0
-229 230 233 0
-231 -232 233 0
231 -232 -233 0
-231 232 -233 0
231 232 233 0
2 10 234 0
-2 10 -234 0
2 -10 -234 0
-2 -10 234 0
-13 -14 235 0
13 -14 -235 0
-13 14 -235 0
13 14 235 0
15 -16 236 0
-15 -16 -236 0
15 16 -236 0
-15 16 236 0
18 19 237 0
-18 19 -237 0
18 -19 -237 0
-18 -19 237 0
20 -22 238 0
-20 -22 -238 0
20 22 -238 0
-20 22 238 0
-24 -28 239 0
24 -28 -239 0
-24 28 -239 0
24 28 239 0
33 34 240 0
-33 34 -240 0
33 -34 -240 0
-33 -34 240 0
35 40 241 0
-35 40 -241 0
35 -40 -241 0
-35 -40 241 0
42 43 242 0
-42 43 -242 0
42 -43 -242 0
-42 -43 242 0
45 -47 243 0
-45 -47 -243 0
45 47 -243 0
-45 47 243 0
48 -50 244 0
-48 -50 -244 0
48 50 -244 0
-48 50 244 0
234 -235 245 0
-234 -235 -245 0
234 235 -245 0
-234 235 245 0
236 -237 246 0
-236 -237 -246 0
236 237 -246 0
-236 237 246 0
238 -239 247 0
-238 -239 -247 0
238 239 -247 0
-238 239 247 0
240 -241 248 0
-240 -241 -248 0
240 241 -248 0
-240 241 248 0
242 -243 249 0
-242 -243 -249 0
242 243 -249 0
-242 243 249 0
244 -245 250 0
-244 -245 -250 0
244 245 -250 0
-244 245 250 0
246 -247 251 0
-246 -247 -251 0
246 247 -251 0
-246 247 251 0
248 -249 252 0
-248 -249 -252 0
248 249 -252 0
-248 249 252 0
-250 -251 252 0
250 -251 -252 0
-250 251 -252 0
250 251 252 0
